%BLOCK LATTICE_ABC
  20.925446568593809  20.511360914161287  42.269657726459243
  90.505579811701210  90.222171945848174  89.658915717715672
%ENDBLOCK LATTICE_ABC

%BLOCK POSITIONS_FRAC
   H   0.998820254813798   0.003080071847944   0.999108233303958
  Li   0.979698936153370   0.001108125374357   0.047389812421545
   H   0.883617665678213   0.003321179596253   0.037178451017390
  Li   0.907651154928268   0.004000014186891   0.490036014036417
   H   0.907104687494988   0.899591000682782   0.491245885806111
  Li   0.881848355284013   0.901036435688102   0.038314815278002
   H   0.978762190500347   0.899854597507702   0.048039181869716
  Li   0.995349015513900   0.898934698970332   0.000809606651670
   H   0.961327603871662   0.799653275895223   0.095834437448717
  Li   0.942321697371300   0.799867183434813   0.143910424284732
   H   0.846133403001462   0.800110172451086   0.134229093214777
  Li   0.865172008442169   0.800154472061003   0.086118389305946
   H   0.866039574455592   0.699683522400415   0.086010710576038
  Li   0.846523539126198   0.699877371773577   0.134185304203010
   H   0.942658659882867   0.699747973273148   0.143869445673985
  Li   0.962077923772198   0.699465655330846   0.095727219060770
   H   0.768932172246030   0.800664873330356   0.076361969393484
  Li   0.749870434600130   0.800342576771627   0.124518289798721
   H   0.653544570999078   0.800465637764188   0.114771811476189
  Li   0.672515286150793   0.801026154455210   0.066478139223274
   H   0.673239851366258   0.700275758989555   0.066397117036125
  Li   0.653909824299391   0.700153037912177   0.114730976892878
   H   0.750214467178075   0.700022954607803   0.124480508809610
  Li   0.769452324780157   0.699931352474970   0.076298223586084
   H   0.575721395612564   0.800866639505881   0.056639048228998
  Li   0.557077610701691   0.800353968047200   0.105049303104563
   H   0.460445839789891   0.800014313045229   0.095385580469754
  Li   0.478259047964080   0.800417605566963   0.046860033400343
   H   0.479594209883124   0.700401510012988   0.046760859240519
  Li   0.460964969160237   0.700010823479937   0.095325156009114
   H   0.557483250586693   0.700192950634154   0.104992643137988
  Li   0.576615320672086   0.700604406264443   0.056483701118067
   H   0.380584608216331   0.799890431753346   0.037380720198228
  Li   0.363834453088163   0.799454279331299   0.085834934136927
   H   0.267642776068045   0.798343289457985   0.076389999112417
  Li   0.283657088954603   0.795524046540708   0.028304724837806
   H   0.284929430135383   0.697865018805394   0.027750135019077
  Li   0.268294520125532   0.698793263907116   0.076289597353559
   H   0.364447252776055   0.699614657329668   0.085733733147545
  Li   0.382494903620913   0.700681203011869   0.036815977369503
   H   0.190976877272883   0.794610312933670   0.018817914582559
  Li   0.172224064425382   0.798004986430797   0.066919797463308
   H   0.076339383263122   0.798599004546946   0.057439713357002
  Li   0.095007315017908   0.797231346726696   0.009522394487012
   H   0.096695041596334   0.698078486403536   0.009255314465640
  Li   0.077351941632146   0.698806736539482   0.057290410642749
   H   0.172867483131410   0.698612315737922   0.066826118255564
  Li   0.191632198885880   0.697527429353417   0.018669281593404
   H   0.997932470915645   0.796589709687784   0.001113490027555
  Li   0.980164791248575   0.798964404561968   0.048022456978237
   H   0.884249951877968   0.800108056918206   0.038158598881895
  Li   0.908627791939953   0.795858083381935   0.493216994496440
   H   0.910143669595471   0.698877659232003   0.492732301003727
  Li   0.886007539396630   0.699256808415385   0.037900221571023
   H   0.981852417199226   0.698857580157544   0.047694122771604
  Li   0.001617535230060   0.697686835586441   0.999871221503017
   H   0.923279664182527   0.799931644812546   0.192051633188195
  Li   0.904254617568734   0.799935670124702   0.240213821419383
   H   0.808057561960328   0.799985810204189   0.230558474663670
  Li   0.827087148529644   0.800047213773689   0.182388381974685
   H   0.827259281903660   0.699941700831303   0.182371434170786
  Li   0.808128770868977   0.699945921737613   0.230554912979819
   H   0.904316813788954   0.699921187395756   0.240211156088173
  Li   0.923429636828360   0.699873696717405   0.192036223785363
   H   0.730848848970113   0.800145525807651   0.172709318731206
  Li   0.711829102001700   0.800022157594216   0.220894534254062
   H   0.615580967119263   0.800026589680960   0.211229315568060
  Li   0.634574712158772   0.800179927196733   0.163021312981323
   H   0.634748144267892   0.700050223523834   0.163002539002324
  Li   0.615654699590438   0.699974350256461   0.211223215722267
   H   0.711901012077591   0.699967878321769   0.220889857682040
  Li   0.731018456684443   0.700009286217083   0.172692264196141
   H   0.538249737305585   0.800103339173913   0.153347442822613
  Li   0.519318140001157   0.799980148159685   0.201576653410181
   H   0.423053076790311   0.799878793449550   0.191945029198150
  Li   0.441887681491708   0.799906297619708   0.143708892317563
   H   0.442109519151826   0.699901519018514   0.143680695564318
  Li   0.423148463765755   0.699876893800443   0.191933527428109
   H   0.519398403360465   0.699947945150144   0.201568249281806
  Li   0.538436439003350   0.700027111880061   0.153323921521295
   H   0.345562285684054   0.799607401828347   0.134119778484151
  Li   0.326815699561329   0.799740289916783   0.182337974896528
   H   0.230643269987423   0.799609617203184   0.172749966676891
  Li   0.249393733882011   0.799243608961429   0.124572405444750
   H   0.249705636030763   0.699370567815828   0.124530093393913
  Li   0.230790535695861   0.699654432479341   0.172729707145556
   H   0.326934078930474   0.699768354758265   0.182321938794325
  Li   0.345829516603758   0.699674478838475   0.134081525648271
   H   0.153435126133871   0.799137122218193   0.115018121017084
  Li   0.134544056193135   0.799583514112659   0.163158334688211
   H   0.038451112414668   0.799686452239441   0.153547627337881
  Li   0.057427351514893   0.799346783603635   0.105440176554262
   H   0.057941526348552   0.699354640313506   0.105370523353196
  Li   0.038701735571078   0.699661777159025   0.153515918948975
   H   0.134729495040161   0.699618461985540   0.163133151143445
  Li   0.153799319562797   0.699277393647276   0.114967569032813
   H   0.885279879138517   0.799898842100524   0.288387695426477
  Li   0.866400780363368   0.799804047120305   0.336579068328700
   H   0.770146938716568   0.799785976335799   0.326882243658943
  Li   0.789067691777294   0.799911805391357   0.278725614859447
   H   0.789082227694060   0.699911922965387   0.278732606496894
  Li   0.770103915280036   0.699827006841748   0.326904612122071
   H   0.866382582416545   0.699884378907515   0.336601702804265
  Li   0.885295125963053   0.699923723881659   0.288395362186041
   H   0.692824597137332   0.799918015954506   0.269060387031930
  Li   0.673846499910634   0.799775335455151   0.317195704234015
   H   0.577574413266775   0.799792498839420   0.307529828895589
  Li   0.596577186325666   0.799917923950449   0.259400566634944
   H   0.596586828928276   0.699902045619384   0.259404227133299
  Li   0.577510241731692   0.699801085322041   0.307546082131558
   H   0.673775445601719   0.699797375981166   0.317213107087726
  Li   0.692833278348425   0.699905433080645   0.269065424507408
   H   0.500334132855711   0.799900526671684   0.249754299338057
  Li   0.481331217456493   0.799811767890068   0.297884006311050
   H   0.385103587900687   0.799822367095353   0.288258762070574
  Li   0.404100088952790   0.799861706734650   0.240124985967270
   H   0.404125591381679   0.699867083186991   0.240123790045558
  Li   0.385068377175572   0.699841065417308   0.288267874506693
   H   0.481280815547425   0.699817608313743   0.297898662404752
  Li   0.500349442600331   0.699891176847116   0.249756181612586
   H   0.307887034743620   0.799810321148984   0.230511997316292
  Li   0.288894653471452   0.799823789417786   0.278650973739991
   H   0.192715179814701   0.799825987960355   0.269057944792874
  Li   0.211709303256724   0.799770004504846   0.220911424184844
   H   0.211769217326334   0.699798536025802   0.220903088452867
  Li   0.192717037824668   0.699874251583131   0.269056316441099
   H   0.288876597096764   0.699862196742267   0.278653393871802
  Li   0.307927479568180   0.699831746124388   0.230506959638899
   H   0.115566746861747   0.799774512893504   0.211307801972428
  Li   0.096564407585911   0.799844098838576   0.259462906446261
   H   0.000419053449201   0.799884366189119   0.249849933005126
  Li   0.019433064384020   0.799834106487574   0.201690447144530
   H   0.019548703380619   0.699821629869597   0.201677525946824
  Li   0.000463699460898   0.699899255802881   0.249847508955299
   H   0.096587547113479   0.699883362613161   0.259460201877828
  Li   0.115650984552908   0.699793222266735   0.211297010093290
   H   0.847691495719820   0.799606649329334   0.384794463524310
  Li   0.829336548514303   0.799304698739916   0.433001682497349
   H   0.732927351109519   0.798720846548785   0.422887833591792
  Li   0.751347175710980   0.799516709757819   0.374999384542036
   H   0.751178879056505   0.699643084724025   0.375058440955504
  Li   0.732340464297929   0.699184682797140   0.423099514136826
   H   0.829255401609332   0.699633169752698   0.433157237472222
  Li   0.847640560760457   0.699788589394010   0.384848955968091
   H   0.654896166142398   0.799493360705813   0.365268408298640
  Li   0.635939240707563   0.798824651600194   0.413134561060071
   H   0.539544955573466   0.799207611990177   0.403539103852313
  Li   0.558569745405150   0.799585173383478   0.355596513196459
   H   0.558355220097943   0.699628908574133   0.355637417655142
  Li   0.538967896622904   0.699335745209582   0.403633988033227
   H   0.635005441718185   0.699130139736222   0.413254987052211
  Li   0.654622284247118   0.699583972433707   0.365309261170293
   H   0.462325305401883   0.799671258611476   0.345952465599179
  Li   0.443339926944385   0.799422046358523   0.393889402430661
   H   0.347095439765560   0.799579680508909   0.384349059051462
  Li   0.366096691904763   0.799738451768838   0.336339304386802
   H   0.365973091305812   0.699784539404776   0.336365231325909
  Li   0.346809497140878   0.699688922714660   0.384409668299481
   H   0.442935442946838   0.699473640879338   0.394007996382274
  Li   0.462162543807304   0.699693075848350   0.345993219849212
   H   0.269884902475735   0.799781721770300   0.326752442770539
  Li   0.250873920162017   0.799664784946103   0.374804175109464
   H   0.154722298548221   0.799686011654832   0.365326425584837
  Li   0.173711519422754   0.799806172460280   0.317192350708739
   H   0.173653905525797   0.699926846616444   0.317191877129041
  Li   0.154573030696116   0.700009740632663   0.365309797353319
   H   0.250655153353161   0.699912763777613   0.374809899141946
  Li   0.269793863275465   0.699876044136993   0.326760396865590
   H   0.077581739367278   0.799828628917978   0.307631576686332
  Li   0.058670377940575   0.799679595906743   0.355858051746734
   H   0.962576725810941   0.799759521313282   0.346258270172701
  Li   0.981448392354971   0.799867914361295   0.298029027244823
   H   0.981449169234007   0.699931661121251   0.298034326820858
  Li   0.962542223233688   0.699929480849006   0.346269857269881
   H   0.058580450943581   0.699970611254919   0.355845013449104
  Li   0.077555087717042   0.699934262226481   0.307631814020285
   H   0.811563878304626   0.798779249396893   0.480558717878958
  Li   0.788696542170392   0.801149274856610   0.028457442883524
   H   0.691631576575213   0.801975952214215   0.018180995725015
  Li   0.715467515028551   0.796397738396006   0.470120394530164
   H   0.713424280647020   0.698381607093338   0.471003307219815
  Li   0.692835029461669   0.700277286196867   0.018055017813276
   H   0.787897146006236   0.699269389642289   0.028445363290248
  Li   0.811559332660087   0.699396935100897   0.481443651808041
   H   0.616099384940872   0.798793055547439   0.460985075560840
  Li   0.594321770409924   0.801719716398608   0.008126916036010
   H   0.493612336811460   0.801330880144546   0.998178233464045
  Li   0.520476157517064   0.798598780110431   0.451327574483898
   H   0.519122311313629   0.698925405958632   0.451551119697187
  Li   0.498496005436641   0.701344911281484   0.998005567172599
   H   0.596374565503482   0.701866414229936   0.007522548762842
  Li   0.613632786486625   0.697959658741410   0.460884370636667
   H   0.424382562634153   0.799038776986838   0.441694760124638
  Li   0.405684990534935   0.798478903181936   0.489299808630432
   H   0.308927548615956   0.798582124848202   0.480152718772429
  Li   0.328078605594318   0.799333644018589   0.432260984058447
   H   0.327496119763723   0.699583986785708   0.432380817786550
  Li   0.308057746509089   0.699312268194432   0.480378574117373
   H   0.404041069231225   0.698419778941040   0.490107834628138
  Li   0.423496804805574   0.699124225199740   0.441997998325735
   H   0.231837820932974   0.799435046038953   0.422774285892095
  Li   0.212762783604789   0.799014521701773   0.470681939897476
   H   0.116779920939553   0.798689245675476   0.461777256868385
  Li   0.135734301398793   0.799376611200435   0.413484088008631
   H   0.135419634514012   0.700252132834531   0.413389340132560
  Li   0.116159948954999   0.700853010282805   0.461529100908823
   H   0.211652332114650   0.700635573331893   0.470502183219848
  Li   0.231361829952042   0.700097596525785   0.422742170027590
   H   0.039928426661842   0.799128056643035   0.404294107394113
  Li   0.021891029634188   0.796805846846209   0.453700624994261
   H   0.925681409159986   0.798573345473943   0.443328617568144
  Li   0.943894578188779   0.799443219636404   0.394609768950733
   H   0.943845317638702   0.699878054949250   0.394618872581417
  Li   0.925796022770120   0.699668361840568   0.443268958895154
   H   0.021496640894338   0.699994443015868   0.452853843057860
  Li   0.039737087431835   0.700007347747348   0.404177286571166
   H   0.962777974149993   0.599417958163334   0.095573566978348
  Li   0.942932423152160   0.599716955981948   0.143804232681628
   H   0.846873021790761   0.599745641720003   0.134109158499969
  Li   0.867139705388696   0.599360230345665   0.085810123228224
   H   0.866492468060062   0.499480106514073   0.085762939126108
  Li   0.846778878865077   0.499776944330120   0.134060051322892
   H   0.942891943742651   0.499788765377645   0.143756152165382
  Li   0.962490490674797   0.499590481899858   0.095500844492877
   H   0.770283577050055   0.599517333010605   0.076109584914029
  Li   0.750534148146312   0.599826025815314   0.124405693158872
   H   0.654245722319064   0.599922320911425   0.114671946256456
  Li   0.674098453296542   0.599641849291083   0.066267526746390
   H   0.673611333874757   0.499784641738342   0.066182119801146
  Li   0.654197957926803   0.499912936324956   0.114618084936127
   H   0.750477971000079   0.499801698102634   0.124341634660432
  Li   0.769933209587434   0.499456371995641   0.075988172140555
   H   0.577358229372613   0.600150330654979   0.056470912669591
  Li   0.557878503422061   0.600025390401513   0.104958057975474
   H   0.461632793184962   0.599963992425098   0.095295511830479
  Li   0.481126312526662   0.600363167679974   0.046698471807996
   H   0.480935088839265   0.499881724330739   0.046705408994532
  Li   0.461779886493355   0.499873750312339   0.095271066472454
   H   0.557942835234724   0.499956405455392   0.104927448546865
  Li   0.577208955804943   0.499966019903739   0.056441187754170
   H   0.386475048474304   0.600608248850174   0.036981075609959
  Li   0.365608627165754   0.599663063583945   0.085746727131544
   H   0.269781836058784   0.598754781110236   0.076413371897432
  Li   0.292943935660525   0.593528388961115   0.029405145509790
   H   0.287543158298296   0.501570658132871   0.026813134603571
  Li   0.269281715420611   0.500033455114470   0.075968913228235
   H   0.365686306328310   0.499815389719033   0.085658286481530
  Li   0.385138880142672   0.500051173920956   0.037164306789806
   H   0.193501916755781   0.598324442169225   0.018716906962159
  Li   0.173714275232427   0.599050876454518   0.066753771872793
   H   0.078345098209932   0.599159791041721   0.057096234998372
  Li   0.099012409445987   0.598960638521228   0.008987302992351
   H   0.097834711605934   0.499968413865326   0.008621269883865
  Li   0.078023426543057   0.499658083624217   0.056922906118399
   H   0.173578709579644   0.499859861359864   0.066493978714036
  Li   0.192884869627594   0.500470022926764   0.018064539121718
   H   0.007609085760881   0.597689285475381   0.998873007271200
  Li   0.983914270003069   0.598809897733243   0.047301195393818
   H   0.891172435976953   0.598108407782604   0.037288888471392
  Li   0.906115660972901   0.603752434358769   0.492994695613303
   H   0.908119877775115   0.502391587183066   0.491528926747394
  Li   0.886906616309316   0.498963577056951   0.037466753244282
   H   0.982601661516079   0.499307600623233   0.047245167962317
  Li   0.002727985472300   0.499089536297537   0.998975454034008
   H   0.923550171570894   0.599865410804823   0.192007964131986
  Li   0.904375894122297   0.599940978944392   0.240200728525025
   H   0.808199474066155   0.599941619290176   0.230545533877464
  Li   0.827401558806222   0.599890888644563   0.182340466588351
   H   0.827410937568668   0.499911684692495   0.182313102283504
  Li   0.808236764779385   0.499970336843345   0.230534989795249
   H   0.904406439499443   0.499981780677989   0.240187613289152
  Li   0.923564354004008   0.499906602260319   0.191981630386029
   H   0.731164111313472   0.599928360171354   0.172661447618067
  Li   0.711977816503834   0.599946913275959   0.220881385939202
   H   0.615739951676557   0.599948850869864   0.211215621203750
  Li   0.634907909077554   0.599962653378756   0.162975601296383
   H   0.634944393100731   0.499955932721506   0.162949522757125
  Li   0.615795495808417   0.499958777141273   0.211208945047905
   H   0.712024065516102   0.499963559157904   0.220872789878280
  Li   0.731184470151376   0.499927233375591   0.172631724374144
   H   0.538634282711234   0.599966494089454   0.153301885718065
  Li   0.519499796015827   0.599932787395365   0.201560526250374
   H   0.423277468875496   0.599885353270796   0.191923008639575
  Li   0.442394310197329   0.599893705129595   0.143658761733526
   H   0.442521409205152   0.499889342362576   0.143637888206654
  Li   0.423361386917331   0.499901524154118   0.191913710005011
   H   0.519569542194670   0.499940389718873   0.201554665994556
  Li   0.538714295018886   0.499950624228490   0.153282343824508
   H   0.346230563230575   0.599731932740334   0.134060100549766
  Li   0.327093676949546   0.599809126120540   0.182305936881959
   H   0.230963850324697   0.599726496755082   0.172705269597071
  Li   0.250154130484902   0.599489718326233   0.124506937909424
   H   0.250176558802357   0.499795868832641   0.124391603278495
  Li   0.231019940519096   0.499828658556995   0.172665353121531
   H   0.327176981884854   0.499856372940731   0.182285352316975
  Li   0.346358914967530   0.499815103330823   0.134014161754253
   H   0.154171394984643   0.599472745606329   0.114903650924820
  Li   0.134901648788888   0.599702281559675   0.163095487122660
   H   0.038905139265803   0.599707679845042   0.153465226994367
  Li   0.058382482964376   0.599480331054039   0.105268503370724
   H   0.058316730340802   0.499697552575332   0.105175829374131
  Li   0.038912418724616   0.499805617607466   0.153416642410009
   H   0.134937601739518   0.499816381330050   0.163048781051759
  Li   0.154186887225161   0.499760157063571   0.114797767952321
   H   0.885327955569038   0.599986719698135   0.288396015727629
  Li   0.866403142180970   0.600029080486184   0.336614536573433
   H   0.770139989073382   0.599924009280832   0.326934626527707
  Li   0.789126857147999   0.599948842410031   0.278739378320991
   H   0.789196216210329   0.499997764505122   0.278743021072651
  Li   0.770286448632844   0.500005582774013   0.326959639270621
   H   0.866503407713461   0.500130513626838   0.336608963224113
  Li   0.885379186242785   0.500047868739939   0.288389366263895
   H   0.692882015589630   0.599925899734920   0.269074798020647
  Li   0.673806509535243   0.599871163329959   0.317247073948581
   H   0.577547240361224   0.599848180248911   0.307579652072736
  Li   0.596639628732369   0.599912512211145   0.259413820634640
   H   0.596724691182375   0.499940378541892   0.259426027713882
  Li   0.577716558638459   0.499899078627439   0.307620958842987
   H   0.673989521954293   0.499937229721583   0.317287687498994
  Li   0.692965335475548   0.499963127210099   0.269085089708346
   H   0.500405826747555   0.599900966089487   0.249763473500198
  Li   0.481314432353023   0.599849243031612   0.297926781802004
   H   0.385095777015243   0.599876700829822   0.288285988847116
  Li   0.404187436786222   0.599886621907125   0.240126095736692
   H   0.404257904343665   0.499911130471639   0.240131077437071
  Li   0.385185948541576   0.499910307373064   0.288310346775771
   H   0.481443863776796   0.499886849626161   0.297961451994277
  Li   0.500484807800136   0.499923555245293   0.249773788179895
   H   0.307995975337810   0.599867156064341   0.230502339433715
  Li   0.288899881652525   0.599912506523646   0.278659586684514
   H   0.192740613060540   0.599936001428509   0.269052918073492
  Li   0.211842835444237   0.599847416306605   0.220891027432499
   H   0.211886653323530   0.499898897921476   0.220877059663849
  Li   0.192778678353923   0.499978717323439   0.269052614224263
   H   0.288958728881201   0.499948433345781   0.278671961427230
  Li   0.308055010223138   0.499902239161030   0.230498769757728
   H   0.115730936001335   0.599842148443176   0.211278186225274
  Li   0.096617641071654   0.599943424478790   0.259451181159494
   H   0.000507279126205   0.599943249685051   0.249836654718405
  Li   0.019644690677444   0.599849886990505   0.201653504559503
   H   0.019667103095387   0.499904188619896   0.201628513767115
  Li   0.000533794293285   0.499991781646676   0.249822547008166
   H   0.096645342058259   0.499992238061816   0.259440874292695
  Li   0.115762550326345   0.499900876981431   0.211256931067087
   H   0.847653161083541   0.600103321009485   0.384887808224408
  Li   0.829333551201307   0.600289218990762   0.433276517417338
   H   0.732272760548405   0.599677134736615   0.423329162811884
  Li   0.751199038718889   0.599856954700388   0.375140456314344
   H   0.751537634868194   0.499963193106983   0.375221106124601
  Li   0.733060650563892   0.499669238774178   0.423616574273004
   H   0.829694399108991   0.500399552463946   0.433260810489778
  Li   0.847863129470146   0.500251249043888   0.384878707110679
   H   0.654578005471402   0.599781398704842   0.365385474176577
  Li   0.634483886900688   0.599748750282408   0.413380278202345
   H   0.538811008125352   0.599594253354477   0.403784561274833
  Li   0.558358286284955   0.599740819859684   0.355712965110384
   H   0.558751914014810   0.499819644431329   0.355811860617587
  Li   0.539789082445943   0.499682956872035   0.404005168562238
   H   0.636003995161395   0.499765719866633   0.413715765636113
  Li   0.655057140219484   0.499874852982433   0.365498827932303
   H   0.462167793337670   0.599750074610499   0.346056434208008
  Li   0.442846715515293   0.599547036752700   0.394136056648417
   H   0.346731981073139   0.599798234781497   0.384480714211872
  Li   0.365966524301020   0.599848133869542   0.336405651731977
   H   0.366113159344517   0.499888265944559   0.336461030745596
  Li   0.346963815956419   0.499809754206129   0.384587151940654
   H   0.443316774104953   0.499539239698839   0.394291055762297
  Li   0.462419426373638   0.499797354633247   0.346134102763342
   H   0.269775635974884   0.599975797774375   0.326773271176495
  Li   0.250566711435924   0.600149383064340   0.374803069620846
   H   0.154459017256224   0.600331634746968   0.365275277730226
  Li   0.173630795439927   0.600053296525785   0.317187979829004
   H   0.173670477246173   0.500096939630383   0.317198663572203
  Li   0.154502961737871   0.500328387596617   0.365304613630931
   H   0.250644819150887   0.500141076744131   0.374883884650049
  Li   0.269850323955518   0.500013005448608   0.326807973935584
   H   0.077540712401149   0.600057885828566   0.307622863795655
  Li   0.058475149678376   0.600275830036264   0.355820020229689
   H   0.962502179752167   0.600157913202060   0.346260451255558
  Li   0.981458684267097   0.600028498722473   0.298028129388117
   H   0.981493957705496   0.500096409424694   0.298013571193041
  Li   0.962564223361938   0.500266399070361   0.346225072653401
   H   0.058509882609367   0.500339833424524   0.355784883088310
  Li   0.077568477648798   0.500117794839059   0.307612149861861
   H   0.813858414212716   0.601699158533531   0.481854556289481
  Li   0.790675241797682   0.598804919105496   0.027802695759788
   H   0.696282129923142   0.597783644615935   0.017620868692715
  Li   0.713286014758339   0.599346856182149   0.471537060295865
   H   0.715009973556433   0.497947789707114   0.473034909326133
  Li   0.693296417026399   0.499629330974857   0.017692664164897
   H   0.789462129352894   0.498702279478364   0.027616708177039
  Li   0.812407110624637   0.500478746643774   0.481805749943718
   H   0.609915819441934   0.600539006329046   0.460735178972447
  Li   0.597261235555467   0.600494130234643   0.007829689399354
   H   0.501198503053351   0.601658887995269   0.997675199349113
  Li   0.518348218230904   0.599485718037945   0.451826340169198
   H   0.520844705433671   0.499459717733049   0.452240479621186
  Li   0.498003399356590   0.499518647948409   0.997488221756757
   H   0.596329947167383   0.500125408082109   0.007842562512540
  Li   0.616536784755371   0.499550454048669   0.461960917418983
   H   0.423116025654573   0.599102924500341   0.442213616159959
  Li   0.403147543141326   0.597846860954732   0.490341077810331
   H   0.306961050367205   0.599156167478638   0.480550442343287
  Li   0.327255950576649   0.599755845298320   0.432491488633701
   H   0.327513586640382   0.499590065342987   0.432670381234749
  Li   0.307301466013417   0.498688130555792   0.480734847156921
   H   0.398642512410295   0.492866400731712   0.490532806763171
  Li   0.423649428604215   0.498627922227315   0.442486546507030
   H   0.231173117376158   0.600775724494091   0.422565449236429
  Li   0.211767433293273   0.603015651385616   0.469308251387090
   H   0.114807895942396   0.604561968864726   0.460634331296929
  Li   0.135043012634517   0.601244262253989   0.413202017346582
   H   0.135130767079009   0.500839457820149   0.413317229030940
  Li   0.115364128576980   0.501740120516045   0.461129255419713
   H   0.210119066266117   0.501102984224369   0.470124472642943
  Li   0.231079659444291   0.500450823074269   0.422795296344803
   H   0.039319486090769   0.600844631568608   0.404127388928933
  Li   0.019689462324918   0.602488917601859   0.453053813287452
   H   0.924933231331046   0.601195524721012   0.443301154405473
  Li   0.943651342815864   0.600446927672457   0.394605712647252
   H   0.943803812510147   0.500592751501591   0.394491494315463
  Li   0.925425871982003   0.501225054362458   0.442891454665393
   H   0.020222627313972   0.501436761039528   0.452208406540029
  Li   0.039414178172520   0.500770322268088   0.403974467123164
   H   0.962088109215548   0.399807763924879   0.095454242376305
  Li   0.942731421711413   0.399914869775677   0.143724831521853
   H   0.846589638986793   0.399911461621351   0.134023321386690
  Li   0.866001922075030   0.399678004100280   0.085705562815457
   H   0.865897626943844   0.300519720587928   0.085764152032301
  Li   0.846433538803887   0.300210539995254   0.134019286778707
   H   0.942551352789379   0.300094574834440   0.143717247108639
  Li   0.961798397542297   0.300187915864357   0.095460218220699
   H   0.769366776877609   0.399366308201392   0.075818365842083
  Li   0.750287674709878   0.399890286541019   0.124279665714987
   H   0.654016258267244   0.400042632068321   0.114553846773742
  Li   0.672993860978853   0.400139401500206   0.065960883647315
   H   0.672810607038300   0.300535012839032   0.065971765544862
  Li   0.653858506482048   0.300282405508897   0.114547764859823
   H   0.750178036218052   0.300213024670547   0.124260677578523
  Li   0.769514735867401   0.300259650700419   0.075762274251781
   H   0.577092008015214   0.400080514420719   0.056368636104643
  Li   0.557897778292509   0.400009242183507   0.104899822018061
   H   0.461944587379720   0.399761906834296   0.095287753194877
  Li   0.481764798708749   0.399384881099739   0.046876332426650
   H   0.480996276443939   0.300101005354030   0.046784747974787
  Li   0.461679736166032   0.299944566108463   0.095261044410450
   H   0.557675501434331   0.300243411144802   0.104889740182466
  Li   0.576473229496370   0.300700753357885   0.056325871213038
   H   0.386932203419750   0.397397650659745   0.037336752113034
  Li   0.365997977556193   0.399472875195183   0.085679596998722
   H   0.269395832223996   0.399812311927291   0.075957184646515
  Li   0.288692048208366   0.400146829678029   0.027379411346380
   H   0.286604356331333   0.297690224454761   0.026852875237331
  Li   0.268860684876208   0.299322507758114   0.075878693444925
   H   0.365527918150446   0.299482373758121   0.085606119183255
  Li   0.385069282552217   0.298924195251373   0.037134031252404
   H   0.193356560455601   0.402176615695018   0.017679758360674
  Li   0.173392356934341   0.400178315237886   0.066349911506729